(set-info :source |printed by MathSAT|)
(declare-fun |!{$(in_main#0)<N>}| () Int)
(declare-fun |!{$(in_main#0)<N>}.next| () Int)
(declare-fun |!{$(in_main#0)<&array>}| () Int)
(declare-fun |!{$(in_main#0)<&array>}.next| () Int)
(declare-fun |!{$(in_main#0)<k>}| () Int)
(declare-fun |!{$(in_main#0)<k>}.next| () Int)
(declare-fun |!{$(in_main#0)<k#1>}| () Int)
(declare-fun |!{$(in_main#0)<k#1>}.next| () Int)
(declare-fun |!{$(in_main#0)<v>}| () Int)
(declare-fun |!{$(in_main#0)<v>}.next| () Int)
(declare-fun |!{%memaddr}| () Int)
(declare-fun |!{%memaddr}.next| () Int)
(declare-fun |!{%mem.0}| () (Array Int Int))
(declare-fun |!{%mem.0}.next| () (Array Int Int))
(declare-fun |!{$(in_main#0)<$(in___VERIFIER_nondet_int#1)<h#<__VERIFIER_nondet_int.return>>>}| () Int)
(declare-fun |!{$(in_main#0)<$(in___VERIFIER_nondet_int#3)<h#<__VERIFIER_nondet_int.return>>>}| () Int)
(declare-fun |!{$(in_main#0)<$(in___VERIFIER_nondet_int#4)<h#<__VERIFIER_nondet_int.return>>>}| () Int)
(declare-fun |!{$(in_main#0)<$(in_rec_array_find_left#5)<$temp.1>>}| () Int)
(declare-fun |!{$(in_main#0)<$(in_rec_array_find_left#5)<$tmp>>}| () Int)
(declare-fun |!{$(in_main#0)<$(in_rec_array_find_left#5)<$(in_rec_array_find_right#0)<$temp.1>>>}| () Int)
(declare-fun |!{$(in_main#0)<$(in_rec_array_find_left#5)<$(in_rec_array_find_right#0)<$tmp>>>}| () Int)
(declare-fun |!{$(in_main#0)<$(in_rec_array_find_left#5)<$(in_rec_array_find_right#0)<$(in_rec_array_find_left#0)<$temp.1>>>>}| () Int)
(declare-fun |!{$(in_main#0)<$(in_rec_array_find_left#5)<$(in_rec_array_find_right#0)<$(in_rec_array_find_left#0)<$tmp>>>>}| () Int)
(declare-fun |!{$(in_main#0)<$(in_rec_array_find_left#5)<$(in_rec_array_find_right#0)<$(in_rec_array_find_left#0)<$(in_rec_array_find_right#0)<$temp.1>>>>>}| () Int)
(declare-fun |!{$(in_main#0)<$(in_rec_array_find_left#5)<$(in_rec_array_find_right#0)<$(in_rec_array_find_left#0)<$(in_rec_array_find_right#0)<$tmp>>>>>}| () Int)
(declare-fun !pc () Int)
(declare-fun !pc.next () Int)
(declare-fun |%{$(in_main#0)<k#1>}#1| () Int)
(declare-fun |%{$(in_main#0)<v>}#1| () Int)
(declare-fun rec_array_find_left<0> (Int Int Int Int Int) Int)
(declare-fun |%{$(in_main#0)<$(in_rec_array_find_left#5)<$(in_rec_array_find_right#0)<$(in_rec_array_find_left#0)<$(in_rec_array_find_right#0)<$temp.1>>>>>}#3| () Int)
(declare-fun |%{$(in_main#0)<$(in_rec_array_find_left#5)<$(in_rec_array_find_right#0)<$(in_rec_array_find_left#0)<$(in_rec_array_find_right#0)<$tmp>>>>>}#3| () Int)
(declare-fun |%{$(in_main#0)<$(in_rec_array_find_left#5)<$(in_rec_array_find_right#0)<$(in_rec_array_find_left#0)<$(in_rec_array_find_right#0)<rec_array_find_right.return>>>>>}#3| () Int)
(declare-fun |%{$(in_main#0)<$(in_rec_array_find_left#5)<$(in_rec_array_find_right#0)<$(in_rec_array_find_left#0)<$temp.1>>>>}#3| () Int)
(declare-fun |%{$(in_main#0)<$(in_rec_array_find_left#5)<$(in_rec_array_find_right#0)<$(in_rec_array_find_left#0)<$tmp>>>>}#3| () Int)
(declare-fun |%{$(in_main#0)<$(in_rec_array_find_left#5)<$(in_rec_array_find_right#0)<$(in_rec_array_find_left#0)<rec_array_find_left.return>>>>}#3| () Int)
(declare-fun |%{$(in_main#0)<$(in_rec_array_find_left#5)<$(in_rec_array_find_right#0)<$tmp>>>}#3| () Int)
(declare-fun |%{$(in_main#0)<$(in_rec_array_find_left#5)<$(in_rec_array_find_right#0)<rec_array_find_right.return>>>}#3| () Int)
(declare-fun |%{$(in_main#0)<$(in_rec_array_find_left#5)<$(in_rec_array_find_right#0)<$temp.1>>>}#3| () Int)
(declare-fun |%{$(in_main#0)<$(in_rec_array_find_left#5)<$temp.1>>}#3| () Int)
(declare-fun |%{$(in_main#0)<$(in_rec_array_find_left#5)<$tmp>>}#3| () Int)
(declare-fun |%{$(in_main#0)<$(in_rec_array_find_left#5)<rec_array_find_left.return>>}#3| () Int)
(define-fun .def_82 () Int (! !pc :next !pc.next))
(define-fun .def_85 () Bool (! (= .def_82 2) :init true))
(define-fun .def_460 () Bool (= .def_82 51))
(define-fun .def_169 () Bool (= !pc.next 240))
(define-fun .def_467 () Bool (and .def_169 .def_460))
(define-fun .def_452 () Bool (= |!{$(in_main#0)<k#1>}.next| 0))
(define-fun .def_10 () Int (! |!{$(in_main#0)<&array>}| :next |!{$(in_main#0)<&array>}.next|))
(define-fun .def_134 () Bool (= .def_10 |!{$(in_main#0)<&array>}.next|))
(define-fun .def_8 () Int (! |!{$(in_main#0)<N>}| :next |!{$(in_main#0)<N>}.next|))
(define-fun .def_132 () Bool (= .def_8 |!{$(in_main#0)<N>}.next|))
(define-fun .def_146 () Bool (and .def_132 .def_134))
(define-fun .def_12 () Int (! |!{$(in_main#0)<k>}| :next |!{$(in_main#0)<k>}.next|))
(define-fun .def_136 () Bool (= .def_12 |!{$(in_main#0)<k>}.next|))
(define-fun .def_147 () Bool (and .def_136 .def_146))
(define-fun .def_453 () Bool (and .def_147 .def_452))
(define-fun .def_445 () Bool (= |!{$(in_main#0)<v>}.next| |!{$(in_main#0)<$(in___VERIFIER_nondet_int#4)<h#<__VERIFIER_nondet_int.return>>>}|))
(define-fun .def_454 () Bool (and .def_445 .def_453))
(define-fun .def_18 () Int (! |!{%memaddr}| :next |!{%memaddr}.next|))
(define-fun .def_142 () Bool (= .def_18 |!{%memaddr}.next|))
(define-fun .def_455 () Bool (and .def_142 .def_454))
(define-fun .def_20 () (Array Int Int) (! |!{%mem.0}| :next |!{%mem.0}.next|))
(define-fun .def_113 () Bool (= .def_20 |!{%mem.0}.next|))
(define-fun .def_456 () Bool (and .def_113 .def_455))
(define-fun .def_412 () Bool (= |%{$(in_main#0)<$(in_rec_array_find_left#5)<rec_array_find_left.return>>}#3| (- 1)))
(define-fun .def_457 () Bool (and .def_412 .def_456))
(define-fun .def_190 () Bool (<= 0 .def_8))
(define-fun .def_188 () Bool (<= .def_8 0))
(define-fun .def_189 () Bool (not .def_188))
(define-fun .def_191 () Bool (and .def_189 .def_190))
(define-fun .def_408 () Bool (not .def_191))
(define-fun .def_389 () Bool (= |!{$(in_main#0)<$(in_rec_array_find_left#5)<$temp.1>>}| |%{$(in_main#0)<$(in_rec_array_find_left#5)<$temp.1>>}#3|))
(define-fun .def_410 () Bool (and .def_389 .def_408))
(define-fun .def_395 () Bool (= |!{$(in_main#0)<$(in_rec_array_find_left#5)<$tmp>>}| |%{$(in_main#0)<$(in_rec_array_find_left#5)<$tmp>>}#3|))
(define-fun .def_411 () Bool (and .def_395 .def_410))
(define-fun .def_413 () Bool (and .def_411 .def_412))
(define-fun .def_402 () Bool (= |%{$(in_main#0)<$(in_rec_array_find_left#5)<$(in_rec_array_find_right#0)<rec_array_find_right.return>>>}#3| |%{$(in_main#0)<$(in_rec_array_find_left#5)<rec_array_find_left.return>>}#3|))
(define-fun .def_396 () Bool (= |%{$(in_main#0)<$(in_rec_array_find_left#5)<$(in_rec_array_find_right#0)<rec_array_find_right.return>>>}#3| |%{$(in_main#0)<$(in_rec_array_find_left#5)<$tmp>>}#3|))
(define-fun .def_390 () Bool (= |%{$(in_main#0)<$(in_rec_array_find_left#5)<$(in_rec_array_find_right#0)<rec_array_find_right.return>>>}#3| |%{$(in_main#0)<$(in_rec_array_find_left#5)<$temp.1>>}#3|))
(define-fun .def_378 () Bool (= |%{$(in_main#0)<$(in_rec_array_find_left#5)<$(in_rec_array_find_right#0)<rec_array_find_right.return>>>}#3| (- 1)))
(define-fun .def_198 () Bool (<= 1 .def_8))
(define-fun .def_195 () Bool (<= .def_8 1))
(define-fun .def_196 () Bool (not .def_195))
(define-fun .def_197 () Bool (and .def_189 .def_196))
(define-fun .def_199 () Bool (and .def_197 .def_198))
(define-fun .def_373 () Bool (not .def_199))
(define-fun .def_348 () Bool (= |!{$(in_main#0)<$(in_rec_array_find_left#5)<$(in_rec_array_find_right#0)<$tmp>>>}| |%{$(in_main#0)<$(in_rec_array_find_left#5)<$(in_rec_array_find_right#0)<$tmp>>>}#3|))
(define-fun .def_377 () Bool (and .def_348 .def_373))
(define-fun .def_379 () Bool (and .def_377 .def_378))
(define-fun .def_364 () Bool (= |!{$(in_main#0)<$(in_rec_array_find_left#5)<$(in_rec_array_find_right#0)<$temp.1>>>}| |%{$(in_main#0)<$(in_rec_array_find_left#5)<$(in_rec_array_find_right#0)<$temp.1>>>}#3|))
(define-fun .def_380 () Bool (and .def_364 .def_379))
(define-fun .def_365 () Bool (= |%{$(in_main#0)<$(in_rec_array_find_left#5)<$(in_rec_array_find_right#0)<$(in_rec_array_find_left#0)<rec_array_find_left.return>>>>}#3| |%{$(in_main#0)<$(in_rec_array_find_left#5)<$(in_rec_array_find_right#0)<$temp.1>>>}#3|))
(define-fun .def_359 () Bool (= |%{$(in_main#0)<$(in_rec_array_find_left#5)<$(in_rec_array_find_right#0)<$(in_rec_array_find_left#0)<rec_array_find_left.return>>>>}#3| |%{$(in_main#0)<$(in_rec_array_find_left#5)<$(in_rec_array_find_right#0)<rec_array_find_right.return>>>}#3|))
(define-fun .def_349 () Bool (= |%{$(in_main#0)<$(in_rec_array_find_left#5)<$(in_rec_array_find_right#0)<$(in_rec_array_find_left#0)<rec_array_find_left.return>>>>}#3| |%{$(in_main#0)<$(in_rec_array_find_left#5)<$(in_rec_array_find_right#0)<$tmp>>>}#3|))
(define-fun .def_334 () Bool (= |%{$(in_main#0)<$(in_rec_array_find_left#5)<$(in_rec_array_find_right#0)<$(in_rec_array_find_left#0)<rec_array_find_left.return>>>>}#3| (- 1)))
(define-fun .def_207 () Bool (<= 2 .def_8))
(define-fun .def_208 () Bool (and .def_196 .def_207))
(define-fun .def_326 () Bool (not .def_208))
(define-fun .def_303 () Bool (= |!{$(in_main#0)<$(in_rec_array_find_left#5)<$(in_rec_array_find_right#0)<$(in_rec_array_find_left#0)<$temp.1>>>>}| |%{$(in_main#0)<$(in_rec_array_find_left#5)<$(in_rec_array_find_right#0)<$(in_rec_array_find_left#0)<$temp.1>>>>}#3|))
(define-fun .def_332 () Bool (and .def_303 .def_326))
(define-fun .def_309 () Bool (= |!{$(in_main#0)<$(in_rec_array_find_left#5)<$(in_rec_array_find_right#0)<$(in_rec_array_find_left#0)<$tmp>>>>}| |%{$(in_main#0)<$(in_rec_array_find_left#5)<$(in_rec_array_find_right#0)<$(in_rec_array_find_left#0)<$tmp>>>>}#3|))
(define-fun .def_333 () Bool (and .def_309 .def_332))
(define-fun .def_335 () Bool (and .def_333 .def_334))
(define-fun .def_316 () Bool (= |%{$(in_main#0)<$(in_rec_array_find_left#5)<$(in_rec_array_find_right#0)<$(in_rec_array_find_left#0)<$(in_rec_array_find_right#0)<rec_array_find_right.return>>>>>}#3| |%{$(in_main#0)<$(in_rec_array_find_left#5)<$(in_rec_array_find_right#0)<$(in_rec_array_find_left#0)<rec_array_find_left.return>>>>}#3|))
(define-fun .def_310 () Bool (= |%{$(in_main#0)<$(in_rec_array_find_left#5)<$(in_rec_array_find_right#0)<$(in_rec_array_find_left#0)<$(in_rec_array_find_right#0)<rec_array_find_right.return>>>>>}#3| |%{$(in_main#0)<$(in_rec_array_find_left#5)<$(in_rec_array_find_right#0)<$(in_rec_array_find_left#0)<$tmp>>>>}#3|))
(define-fun .def_304 () Bool (= |%{$(in_main#0)<$(in_rec_array_find_left#5)<$(in_rec_array_find_right#0)<$(in_rec_array_find_left#0)<$(in_rec_array_find_right#0)<rec_array_find_right.return>>>>>}#3| |%{$(in_main#0)<$(in_rec_array_find_left#5)<$(in_rec_array_find_right#0)<$(in_rec_array_find_left#0)<$temp.1>>>>}#3|))
(define-fun .def_285 () Bool (= |%{$(in_main#0)<$(in_rec_array_find_left#5)<$(in_rec_array_find_right#0)<$(in_rec_array_find_left#0)<$(in_rec_array_find_right#0)<rec_array_find_right.return>>>>>}#3| (- 1)))
(define-fun .def_217 () Bool (<= 3 .def_8))
(define-fun .def_213 () Bool (<= .def_8 2))
(define-fun .def_214 () Bool (not .def_213))
(define-fun .def_215 () Bool (and .def_196 .def_214))
(define-fun .def_218 () Bool (and .def_215 .def_217))
(define-fun .def_275 () Bool (not .def_218))
(define-fun .def_246 () Bool (= |!{$(in_main#0)<$(in_rec_array_find_left#5)<$(in_rec_array_find_right#0)<$(in_rec_array_find_left#0)<$(in_rec_array_find_right#0)<$temp.1>>>>>}| |%{$(in_main#0)<$(in_rec_array_find_left#5)<$(in_rec_array_find_right#0)<$(in_rec_array_find_left#0)<$(in_rec_array_find_right#0)<$temp.1>>>>>}#3|))
(define-fun .def_283 () Bool (and .def_246 .def_275))
(define-fun .def_252 () Bool (= |!{$(in_main#0)<$(in_rec_array_find_left#5)<$(in_rec_array_find_right#0)<$(in_rec_array_find_left#0)<$(in_rec_array_find_right#0)<$tmp>>>>>}| |%{$(in_main#0)<$(in_rec_array_find_left#5)<$(in_rec_array_find_right#0)<$(in_rec_array_find_left#0)<$(in_rec_array_find_right#0)<$tmp>>>>>}#3|))
(define-fun .def_284 () Bool (and .def_252 .def_283))
(define-fun .def_286 () Bool (and .def_284 .def_285))
(define-fun .def_226 () Int (+ .def_8 (- 2)))
(define-fun .def_227 () Int (rec_array_find_left<0> .def_10 |!{$(in_main#0)<$(in___VERIFIER_nondet_int#4)<h#<__VERIFIER_nondet_int.return>>>}| 2 .def_226 .def_8))
(define-fun .def_263 () Bool (= .def_227 |%{$(in_main#0)<$(in_rec_array_find_left#5)<$(in_rec_array_find_right#0)<$(in_rec_array_find_left#0)<$(in_rec_array_find_right#0)<rec_array_find_right.return>>>>>}#3|))
(define-fun .def_253 () Bool (= .def_227 |%{$(in_main#0)<$(in_rec_array_find_left#5)<$(in_rec_array_find_right#0)<$(in_rec_array_find_left#0)<$(in_rec_array_find_right#0)<$tmp>>>>>}#3|))
(define-fun .def_247 () Bool (= .def_227 |%{$(in_main#0)<$(in_rec_array_find_left#5)<$(in_rec_array_find_right#0)<$(in_rec_array_find_left#0)<$(in_rec_array_find_right#0)<$temp.1>>>>>}#3|))
(define-fun .def_202 () Int (+ .def_8 .def_10))
(define-fun .def_222 () Int (+ .def_202 (- 2)))
(define-fun .def_223 () Int (select .def_20 .def_222))
(define-fun .def_224 () Bool (= |!{$(in_main#0)<$(in___VERIFIER_nondet_int#4)<h#<__VERIFIER_nondet_int.return>>>}| .def_223))
(define-fun .def_225 () Bool (not .def_224))
(define-fun .def_249 () Bool (and .def_225 .def_247))
(define-fun .def_255 () Bool (and .def_249 .def_253))
(define-fun .def_265 () Bool (and .def_255 .def_263))
(define-fun .def_260 () Int (* (- 1) |%{$(in_main#0)<$(in_rec_array_find_left#5)<$(in_rec_array_find_right#0)<$(in_rec_array_find_left#0)<$(in_rec_array_find_right#0)<rec_array_find_right.return>>>>>}#3|))
(define-fun .def_261 () Int (+ .def_8 .def_260))
(define-fun .def_262 () Bool (= .def_261 2))
(define-fun .def_248 () Bool (and .def_224 .def_246))
(define-fun .def_254 () Bool (and .def_248 .def_252))
(define-fun .def_264 () Bool (and .def_254 .def_262))
(define-fun .def_266 () Bool (or .def_264 .def_265))
(define-fun .def_267 () Bool (and .def_218 .def_266))
(define-fun .def_287 () Bool (or .def_267 .def_286))
(define-fun .def_209 () Int (+ .def_10 1))
(define-fun .def_210 () Int (select .def_20 .def_209))
(define-fun .def_211 () Bool (= |!{$(in_main#0)<$(in___VERIFIER_nondet_int#4)<h#<__VERIFIER_nondet_int.return>>>}| .def_210))
(define-fun .def_212 () Bool (not .def_211))
(define-fun .def_288 () Bool (and .def_212 .def_287))
(define-fun .def_306 () Bool (and .def_288 .def_304))
(define-fun .def_312 () Bool (and .def_306 .def_310))
(define-fun .def_318 () Bool (and .def_312 .def_316))
(define-fun .def_315 () Bool (= |%{$(in_main#0)<$(in_rec_array_find_left#5)<$(in_rec_array_find_right#0)<$(in_rec_array_find_left#0)<rec_array_find_left.return>>>>}#3| 1))
(define-fun .def_305 () Bool (and .def_211 .def_303))
(define-fun .def_311 () Bool (and .def_305 .def_309))
(define-fun .def_317 () Bool (and .def_311 .def_315))
(define-fun .def_319 () Bool (or .def_317 .def_318))
(define-fun .def_320 () Bool (and .def_208 .def_319))
(define-fun .def_336 () Bool (or .def_320 .def_335))
(define-fun .def_203 () Int (+ .def_202 (- 1)))
(define-fun .def_204 () Int (select .def_20 .def_203))
(define-fun .def_205 () Bool (= |!{$(in_main#0)<$(in___VERIFIER_nondet_int#4)<h#<__VERIFIER_nondet_int.return>>>}| .def_204))
(define-fun .def_206 () Bool (not .def_205))
(define-fun .def_337 () Bool (and .def_206 .def_336))
(define-fun .def_351 () Bool (and .def_337 .def_349))
(define-fun .def_361 () Bool (and .def_351 .def_359))
(define-fun .def_367 () Bool (and .def_361 .def_365))
(define-fun .def_356 () Int (* (- 1) |%{$(in_main#0)<$(in_rec_array_find_left#5)<$(in_rec_array_find_right#0)<rec_array_find_right.return>>>}#3|))
(define-fun .def_357 () Int (+ .def_8 .def_356))
(define-fun .def_358 () Bool (= .def_357 1))
(define-fun .def_350 () Bool (and .def_205 .def_348))
(define-fun .def_360 () Bool (and .def_350 .def_358))
(define-fun .def_366 () Bool (and .def_360 .def_364))
(define-fun .def_368 () Bool (or .def_366 .def_367))
(define-fun .def_369 () Bool (and .def_199 .def_368))
(define-fun .def_381 () Bool (or .def_369 .def_380))
(define-fun .def_192 () Int (select .def_20 .def_10))
(define-fun .def_193 () Bool (= |!{$(in_main#0)<$(in___VERIFIER_nondet_int#4)<h#<__VERIFIER_nondet_int.return>>>}| .def_192))
(define-fun .def_194 () Bool (not .def_193))
(define-fun .def_382 () Bool (and .def_194 .def_381))
(define-fun .def_392 () Bool (and .def_382 .def_390))
(define-fun .def_398 () Bool (and .def_392 .def_396))
(define-fun .def_404 () Bool (and .def_398 .def_402))
(define-fun .def_401 () Bool (= |%{$(in_main#0)<$(in_rec_array_find_left#5)<rec_array_find_left.return>>}#3| 0))
(define-fun .def_391 () Bool (and .def_193 .def_389))
(define-fun .def_397 () Bool (and .def_391 .def_395))
(define-fun .def_403 () Bool (and .def_397 .def_401))
(define-fun .def_405 () Bool (or .def_403 .def_404))
(define-fun .def_406 () Bool (and .def_191 .def_405))
(define-fun .def_414 () Bool (or .def_406 .def_413))
(define-fun .def_458 () Bool (and .def_414 .def_457))
(define-fun .def_183 () Bool (<= .def_8 .def_12))
(define-fun .def_459 () Bool (and .def_183 .def_458))
(define-fun .def_468 () Bool (and .def_459 .def_467))
(define-fun .def_463 () Bool (= !pc.next 286))
(define-fun .def_464 () Bool (and .def_460 .def_463))
(define-fun .def_417 () Int (+ .def_10 |%{$(in_main#0)<$(in_rec_array_find_left#5)<rec_array_find_left.return>>}#3|))
(define-fun .def_418 () Int (select .def_20 .def_417))
(define-fun .def_419 () Bool (= |!{$(in_main#0)<$(in___VERIFIER_nondet_int#4)<h#<__VERIFIER_nondet_int.return>>>}| .def_418))
(define-fun .def_420 () Int (ite .def_419 1 0))
(define-fun .def_421 () Bool (= .def_420 0))
(define-fun .def_441 () Bool (and .def_132 .def_421))
(define-fun .def_442 () Bool (and .def_134 .def_441))
(define-fun .def_443 () Bool (and .def_136 .def_442))
(define-fun .def_14 () Int (! |!{$(in_main#0)<k#1>}| :next |!{$(in_main#0)<k#1>}.next|))
(define-fun .def_138 () Bool (= .def_14 |!{$(in_main#0)<k#1>}.next|))
(define-fun .def_444 () Bool (and .def_138 .def_443))
(define-fun .def_446 () Bool (and .def_444 .def_445))
(define-fun .def_447 () Bool (and .def_142 .def_446))
(define-fun .def_448 () Bool (and .def_113 .def_447))
(define-fun .def_416 () Bool (not .def_412))
(define-fun .def_449 () Bool (and .def_416 .def_448))
(define-fun .def_450 () Bool (and .def_414 .def_449))
(define-fun .def_451 () Bool (and .def_183 .def_450))
(define-fun .def_465 () Bool (and .def_451 .def_464))
(define-fun .def_117 () Bool (= !pc.next 51))
(define-fun .def_461 () Bool (and .def_117 .def_460))
(define-fun .def_185 () Int (+ .def_10 .def_12))
(define-fun .def_186 () (Array Int Int) (store .def_20 .def_185 |!{$(in_main#0)<$(in___VERIFIER_nondet_int#3)<h#<__VERIFIER_nondet_int.return>>>}|))
(define-fun .def_438 () Bool (= |!{%mem.0}.next| .def_186))
(define-fun .def_431 () Int (* (- 1) |!{$(in_main#0)<k>}.next|))
(define-fun .def_432 () Int (+ .def_12 .def_431))
(define-fun .def_433 () Bool (= .def_432 (- 1)))
(define-fun .def_434 () Bool (and .def_146 .def_433))
(define-fun .def_435 () Bool (and .def_138 .def_434))
(define-fun .def_16 () Int (! |!{$(in_main#0)<v>}| :next |!{$(in_main#0)<v>}.next|))
(define-fun .def_140 () Bool (= .def_16 |!{$(in_main#0)<v>}.next|))
(define-fun .def_436 () Bool (and .def_140 .def_435))
(define-fun .def_437 () Bool (and .def_142 .def_436))
(define-fun .def_439 () Bool (and .def_437 .def_438))
(define-fun .def_184 () Bool (not .def_183))
(define-fun .def_440 () Bool (and .def_184 .def_439))
(define-fun .def_462 () Bool (and .def_440 .def_461))
(define-fun .def_466 () Bool (or .def_462 .def_465))
(define-fun .def_469 () Bool (or .def_466 .def_468))
(define-fun .def_173 () Bool (= !pc.next 0))
(define-fun .def_164 () Bool (= .def_82 240))
(define-fun .def_174 () Bool (and .def_164 .def_173))
(define-fun .def_158 () Bool (and .def_138 .def_147))
(define-fun .def_159 () Bool (and .def_140 .def_158))
(define-fun .def_160 () Bool (and .def_142 .def_159))
(define-fun .def_161 () Bool (and .def_113 .def_160))
(define-fun .def_120 () Bool (<= .def_8 .def_14))
(define-fun .def_162 () Bool (and .def_120 .def_161))
(define-fun .def_175 () Bool (and .def_162 .def_174))
(define-fun .def_170 () Bool (and .def_164 .def_169))
(define-fun .def_149 () Int (* (- 1) |!{$(in_main#0)<k#1>}.next|))
(define-fun .def_150 () Int (+ .def_14 .def_149))
(define-fun .def_151 () Bool (= .def_150 (- 1)))
(define-fun .def_152 () Bool (and .def_147 .def_151))
(define-fun .def_153 () Bool (and .def_140 .def_152))
(define-fun .def_154 () Bool (and .def_142 .def_153))
(define-fun .def_155 () Bool (and .def_113 .def_154))
(define-fun .def_122 () Int (+ .def_10 .def_14))
(define-fun .def_123 () Int (select .def_20 .def_122))
(define-fun .def_124 () Bool (= .def_16 .def_123))
(define-fun .def_125 () Bool (not .def_124))
(define-fun .def_126 () Int (ite .def_125 1 0))
(define-fun .def_127 () Bool (= .def_126 0))
(define-fun .def_128 () Bool (not .def_127))
(define-fun .def_156 () Bool (and .def_128 .def_155))
(define-fun .def_121 () Bool (not .def_120))
(define-fun .def_157 () Bool (and .def_121 .def_156))
(define-fun .def_171 () Bool (and .def_157 .def_170))
(define-fun .def_166 () Bool (= !pc.next 260))
(define-fun .def_167 () Bool (and .def_164 .def_166))
(define-fun .def_133 () Bool (and .def_127 .def_132))
(define-fun .def_135 () Bool (and .def_133 .def_134))
(define-fun .def_137 () Bool (and .def_135 .def_136))
(define-fun .def_139 () Bool (and .def_137 .def_138))
(define-fun .def_141 () Bool (and .def_139 .def_140))
(define-fun .def_143 () Bool (and .def_141 .def_142))
(define-fun .def_144 () Bool (and .def_113 .def_143))
(define-fun .def_145 () Bool (and .def_121 .def_144))
(define-fun .def_168 () Bool (and .def_145 .def_167))
(define-fun .def_172 () Bool (or .def_168 .def_171))
(define-fun .def_176 () Bool (or .def_172 .def_175))
(define-fun .def_118 () Bool (and .def_85 .def_117))
(define-fun .def_111 () Bool (= |!{%memaddr}.next| 2))
(define-fun .def_109 () Bool (= |!{$(in_main#0)<v>}.next| |%{$(in_main#0)<v>}#1|))
(define-fun .def_107 () Bool (= |!{$(in_main#0)<k#1>}.next| |%{$(in_main#0)<k#1>}#1|))
(define-fun .def_105 () Bool (= |!{$(in_main#0)<k>}.next| 0))
(define-fun .def_103 () Bool (= |!{$(in_main#0)<&array>}.next| 1))
(define-fun .def_102 () Bool (= |!{$(in_main#0)<N>}.next| |!{$(in_main#0)<$(in___VERIFIER_nondet_int#1)<h#<__VERIFIER_nondet_int.return>>>}|))
(define-fun .def_104 () Bool (and .def_102 .def_103))
(define-fun .def_106 () Bool (and .def_104 .def_105))
(define-fun .def_108 () Bool (and .def_106 .def_107))
(define-fun .def_110 () Bool (and .def_108 .def_109))
(define-fun .def_112 () Bool (and .def_110 .def_111))
(define-fun .def_114 () Bool (and .def_112 .def_113))
(define-fun .def_97 () Bool (<= |!{$(in_main#0)<$(in___VERIFIER_nondet_int#1)<h#<__VERIFIER_nondet_int.return>>>}| 0))
(define-fun .def_98 () Bool (not .def_97))
(define-fun .def_99 () Int (ite .def_98 1 0))
(define-fun .def_100 () Bool (= .def_99 0))
(define-fun .def_101 () Bool (not .def_100))
(define-fun .def_115 () Bool (and .def_101 .def_114))
(define-fun .def_119 () Bool (and .def_115 .def_118))
(define-fun .def_177 () Bool (or .def_119 .def_176))
(define-fun .def_470 () Bool (! (or .def_177 .def_469) :trans true))
(define-fun .def_181 () Bool (= .def_82 286))
(define-fun .def_178 () Bool (= .def_82 260))
(define-fun .def_471 () Bool (or .def_178 .def_181))
(define-fun .def_472 () Bool (! (not .def_471) :invar-property 0 :invar-property-name ||))
(assert true)
